NAME          input150
ROWS
 L  R0001
 N  R0002
COLUMNS
    INT1      'MARKER'                 'INTORG'
    C0001     R0001     4118
    C0001     R0002     -4128
    C0002     R0001     170
    C0002     R0002     -180
    C0003     R0001     4408
    C0003     R0002     -4418
    C0004     R0001     1779
    C0004     R0002     -1789
    C0005     R0001     719
    C0005     R0002     -729
    C0006     R0001     1715
    C0006     R0002     -1725
    C0007     R0001     805
    C0007     R0002     -815
    C0008     R0001     4041
    C0008     R0002     -4051
    C0009     R0001     1856
    C0009     R0002     -1866
    C0010     R0001     911
    C0010     R0002     -921
    C0011     R0001     1791
    C0011     R0002     -1801
    C0012     R0001     3393
    C0012     R0002     -3403
    C0013     R0001     2856
    C0013     R0002     -2866
    C0014     R0001     2756
    C0014     R0002     -2766
    C0015     R0001     3073
    C0015     R0002     -3083
    C0016     R0001     3939
    C0016     R0002     -3949
    C0017     R0001     4762
    C0017     R0002     -4772
    C0018     R0001     214
    C0018     R0002     -224
    C0019     R0001     4311
    C0019     R0002     -4321
    C0020     R0001     4329
    C0020     R0002     -4339
    C0021     R0001     4196
    C0021     R0002     -4206
    C0022     R0001     4750
    C0022     R0002     -4760
    C0023     R0001     1288
    C0023     R0002     -1298
    C0024     R0001     2960
    C0024     R0002     -2970
    C0025     R0001     3163
    C0025     R0002     -3173
    C0026     R0001     1607
    C0026     R0002     -1617
    C0027     R0001     477
    C0027     R0002     -487
    C0028     R0001     4566
    C0028     R0002     -4576
    C0029     R0001     1141
    C0029     R0002     -1151
    C0030     R0001     1181
    C0030     R0002     -1191
    C0031     R0001     4472
    C0031     R0002     -4482
    C0032     R0001     259
    C0032     R0002     -269
    C0033     R0001     1351
    C0033     R0002     -1361
    C0034     R0001     3880
    C0034     R0002     -3890
    C0035     R0001     2038
    C0035     R0002     -2048
    C0036     R0001     2069
    C0036     R0002     -2079
    C0037     R0001     596
    C0037     R0002     -606
    C0038     R0001     2843
    C0038     R0002     -2853
    C0039     R0001     1111
    C0039     R0002     -1121
    C0040     R0001     2451
    C0040     R0002     -2461
    C0041     R0001     3754
    C0041     R0002     -3764
    C0042     R0001     2901
    C0042     R0002     -2911
    C0043     R0001     844
    C0043     R0002     -854
    C0044     R0001     1611
    C0044     R0002     -1621
    C0045     R0001     658
    C0045     R0002     -668
    C0046     R0001     3917
    C0046     R0002     -3927
    C0047     R0001     550
    C0047     R0002     -560
    C0048     R0001     421
    C0048     R0002     -431
    C0049     R0001     4131
    C0049     R0002     -4141
    C0050     R0001     4860
    C0050     R0002     -4870
    C0051     R0001     4749
    C0051     R0002     -4759
    C0052     R0001     3327
    C0052     R0002     -3337
    C0053     R0001     4611
    C0053     R0002     -4621
    C0054     R0001     1038
    C0054     R0002     -1048
    C0055     R0001     1287
    C0055     R0002     -1297
    C0056     R0001     2775
    C0056     R0002     -2785
    C0057     R0001     2644
    C0057     R0002     -2654
    C0058     R0001     1763
    C0058     R0002     -1773
    C0059     R0001     2341
    C0059     R0002     -2351
    C0060     R0001     3785
    C0060     R0002     -3795
    C0061     R0001     2944
    C0061     R0002     -2954
    C0062     R0001     1813
    C0062     R0002     -1823
    C0063     R0001     4044
    C0063     R0002     -4054
    C0064     R0001     4295
    C0064     R0002     -4305
    C0065     R0001     694
    C0065     R0002     -704
    C0066     R0001     1083
    C0066     R0002     -1093
    C0067     R0001     1364
    C0067     R0002     -1374
    C0068     R0001     1290
    C0068     R0002     -1300
    C0069     R0001     3925
    C0069     R0002     -3935
    C0070     R0001     2475
    C0070     R0002     -2485
    C0071     R0001     3740
    C0071     R0002     -3750
    C0072     R0001     2680
    C0072     R0002     -2690
    C0073     R0001     376
    C0073     R0002     -386
    C0074     R0001     4583
    C0074     R0002     -4593
    C0075     R0001     4290
    C0075     R0002     -4300
    C0076     R0001     1034
    C0076     R0002     -1044
    C0077     R0001     3501
    C0077     R0002     -3511
    C0078     R0001     4839
    C0078     R0002     -4849
    C0079     R0001     1454
    C0079     R0002     -1464
    C0080     R0001     2632
    C0080     R0002     -2642
    C0081     R0001     4700
    C0081     R0002     -4710
    C0082     R0001     1204
    C0082     R0002     -1214
    C0083     R0001     959
    C0083     R0002     -969
    C0084     R0001     4311
    C0084     R0002     -4321
    C0085     R0001     2241
    C0085     R0002     -2251
    C0086     R0001     2246
    C0086     R0002     -2256
    C0087     R0001     2086
    C0087     R0002     -2096
    C0088     R0001     4885
    C0088     R0002     -4895
    C0089     R0001     4009
    C0089     R0002     -4019
    C0090     R0001     4427
    C0090     R0002     -4437
    C0091     R0001     3670
    C0091     R0002     -3680
    C0092     R0001     1954
    C0092     R0002     -1964
    C0093     R0001     1241
    C0093     R0002     -1251
    C0094     R0001     2715
    C0094     R0002     -2725
    C0095     R0001     1249
    C0095     R0002     -1259
    C0096     R0001     1935
    C0096     R0002     -1945
    C0097     R0001     3798
    C0097     R0002     -3808
    C0098     R0001     2613
    C0098     R0002     -2623
    C0099     R0001     3224
    C0099     R0002     -3234
    C0100     R0001     2724
    C0100     R0002     -2734
    C0101     R0001     88
    C0101     R0002     -98
    C0102     R0001     1964
    C0102     R0002     -1974
    C0103     R0001     404
    C0103     R0002     -414
    C0104     R0001     464
    C0104     R0002     -474
    C0105     R0001     1548
    C0105     R0002     -1558
    C0106     R0001     4693
    C0106     R0002     -4703
    C0107     R0001     1497
    C0107     R0002     -1507
    C0108     R0001     49
    C0108     R0002     -59
    C0109     R0001     4533
    C0109     R0002     -4543
    C0110     R0001     2951
    C0110     R0002     -2961
    C0111     R0001     2680
    C0111     R0002     -2690
    C0112     R0001     4233
    C0112     R0002     -4243
    C0113     R0001     4154
    C0113     R0002     -4164
    C0114     R0001     3639
    C0114     R0002     -3649
    C0115     R0001     3544
    C0115     R0002     -3554
    C0116     R0001     1395
    C0116     R0002     -1405
    C0117     R0001     885
    C0117     R0002     -895
    C0118     R0001     631
    C0118     R0002     -641
    C0119     R0001     1280
    C0119     R0002     -1290
    C0120     R0001     4893
    C0120     R0002     -4903
    C0121     R0001     58
    C0121     R0002     -68
    C0122     R0001     4950
    C0122     R0002     -4960
    C0123     R0001     1847
    C0123     R0002     -1857
    C0124     R0001     1298
    C0124     R0002     -1308
    C0125     R0001     2666
    C0125     R0002     -2676
    C0126     R0001     3095
    C0126     R0002     -3105
    C0127     R0001     3233
    C0127     R0002     -3243
    C0128     R0001     1464
    C0128     R0002     -1474
    C0129     R0001     709
    C0129     R0002     -719
    C0130     R0001     1457
    C0130     R0002     -1467
    C0131     R0001     4187
    C0131     R0002     -4197
    C0132     R0001     796
    C0132     R0002     -806
    C0133     R0001     3420
    C0133     R0002     -3430
    C0134     R0001     4590
    C0134     R0002     -4600
    C0135     R0001     1259
    C0135     R0002     -1269
    C0136     R0001     4968
    C0136     R0002     -4978
    C0137     R0001     4284
    C0137     R0002     -4294
    C0138     R0001     2756
    C0138     R0002     -2766
    C0139     R0001     17
    C0139     R0002     -27
    C0140     R0001     3817
    C0140     R0002     -3827
    C0141     R0001     707
    C0141     R0002     -717
    C0142     R0001     2697
    C0142     R0002     -2707
    C0143     R0001     3050
    C0143     R0002     -3060
    C0144     R0001     4861
    C0144     R0002     -4871
    C0145     R0001     1336
    C0145     R0002     -1346
    C0146     R0001     1595
    C0146     R0002     -1605
    C0147     R0001     1256
    C0147     R0002     -1266
    C0148     R0001     2220
    C0148     R0002     -2230
    C0149     R0001     2226
    C0149     R0002     -2236
    C0150     R0001     2536
    C0150     R0002     -2546
    INT1END   'MARKER'                 'INTEND'
RHS
    B         R0001     264907
BOUNDS
 UP BOUND     C0001     1
 UP BOUND     C0002     1
 UP BOUND     C0003     1
 UP BOUND     C0004     1
 UP BOUND     C0005     1
 UP BOUND     C0006     1
 UP BOUND     C0007     1
 UP BOUND     C0008     1
 UP BOUND     C0009     1
 UP BOUND     C0010     1
 UP BOUND     C0011     1
 UP BOUND     C0012     1
 UP BOUND     C0013     1
 UP BOUND     C0014     1
 UP BOUND     C0015     1
 UP BOUND     C0016     1
 UP BOUND     C0017     1
 UP BOUND     C0018     1
 UP BOUND     C0019     1
 UP BOUND     C0020     1
 UP BOUND     C0021     1
 UP BOUND     C0022     1
 UP BOUND     C0023     1
 UP BOUND     C0024     1
 UP BOUND     C0025     1
 UP BOUND     C0026     1
 UP BOUND     C0027     1
 UP BOUND     C0028     1
 UP BOUND     C0029     1
 UP BOUND     C0030     1
 UP BOUND     C0031     1
 UP BOUND     C0032     1
 UP BOUND     C0033     1
 UP BOUND     C0034     1
 UP BOUND     C0035     1
 UP BOUND     C0036     1
 UP BOUND     C0037     1
 UP BOUND     C0038     1
 UP BOUND     C0039     1
 UP BOUND     C0040     1
 UP BOUND     C0041     1
 UP BOUND     C0042     1
 UP BOUND     C0043     1
 UP BOUND     C0044     1
 UP BOUND     C0045     1
 UP BOUND     C0046     1
 UP BOUND     C0047     1
 UP BOUND     C0048     1
 UP BOUND     C0049     1
 UP BOUND     C0050     1
 UP BOUND     C0051     1
 UP BOUND     C0052     1
 UP BOUND     C0053     1
 UP BOUND     C0054     1
 UP BOUND     C0055     1
 UP BOUND     C0056     1
 UP BOUND     C0057     1
 UP BOUND     C0058     1
 UP BOUND     C0059     1
 UP BOUND     C0060     1
 UP BOUND     C0061     1
 UP BOUND     C0062     1
 UP BOUND     C0063     1
 UP BOUND     C0064     1
 UP BOUND     C0065     1
 UP BOUND     C0066     1
 UP BOUND     C0067     1
 UP BOUND     C0068     1
 UP BOUND     C0069     1
 UP BOUND     C0070     1
 UP BOUND     C0071     1
 UP BOUND     C0072     1
 UP BOUND     C0073     1
 UP BOUND     C0074     1
 UP BOUND     C0075     1
 UP BOUND     C0076     1
 UP BOUND     C0077     1
 UP BOUND     C0078     1
 UP BOUND     C0079     1
 UP BOUND     C0080     1
 UP BOUND     C0081     1
 UP BOUND     C0082     1
 UP BOUND     C0083     1
 UP BOUND     C0084     1
 UP BOUND     C0085     1
 UP BOUND     C0086     1
 UP BOUND     C0087     1
 UP BOUND     C0088     1
 UP BOUND     C0089     1
 UP BOUND     C0090     1
 UP BOUND     C0091     1
 UP BOUND     C0092     1
 UP BOUND     C0093     1
 UP BOUND     C0094     1
 UP BOUND     C0095     1
 UP BOUND     C0096     1
 UP BOUND     C0097     1
 UP BOUND     C0098     1
 UP BOUND     C0099     1
 UP BOUND     C0100     1
 UP BOUND     C0101     1
 UP BOUND     C0102     1
 UP BOUND     C0103     1
 UP BOUND     C0104     1
 UP BOUND     C0105     1
 UP BOUND     C0106     1
 UP BOUND     C0107     1
 UP BOUND     C0108     1
 UP BOUND     C0109     1
 UP BOUND     C0110     1
 UP BOUND     C0111     1
 UP BOUND     C0112     1
 UP BOUND     C0113     1
 UP BOUND     C0114     1
 UP BOUND     C0115     1
 UP BOUND     C0116     1
 UP BOUND     C0117     1
 UP BOUND     C0118     1
 UP BOUND     C0119     1
 UP BOUND     C0120     1
 UP BOUND     C0121     1
 UP BOUND     C0122     1
 UP BOUND     C0123     1
 UP BOUND     C0124     1
 UP BOUND     C0125     1
 UP BOUND     C0126     1
 UP BOUND     C0127     1
 UP BOUND     C0128     1
 UP BOUND     C0129     1
 UP BOUND     C0130     1
 UP BOUND     C0131     1
 UP BOUND     C0132     1
 UP BOUND     C0133     1
 UP BOUND     C0134     1
 UP BOUND     C0135     1
 UP BOUND     C0136     1
 UP BOUND     C0137     1
 UP BOUND     C0138     1
 UP BOUND     C0139     1
 UP BOUND     C0140     1
 UP BOUND     C0141     1
 UP BOUND     C0142     1
 UP BOUND     C0143     1
 UP BOUND     C0144     1
 UP BOUND     C0145     1
 UP BOUND     C0146     1
 UP BOUND     C0147     1
 UP BOUND     C0148     1
 UP BOUND     C0149     1
 UP BOUND     C0150     1
ENDATA
